

******************************************************************************
This program contains Ipopt, a library for large-scale nonlinear optimization.
 Ipopt is released as open source code under the Eclipse Public License (EPL).
         For more information visit http://projects.coin-or.org/Ipopt
******************************************************************************

This is Ipopt version 3.12.8, running with linear solver mumps.
NOTE: Other linear solvers might be more efficient (see Ipopt documentation).

Number of nonzeros in equality constraint Jacobian...:      144
Number of nonzeros in inequality constraint Jacobian.:        0
Number of nonzeros in Lagrangian Hessian.............:      327

Total number of variables............................:       72
                     variables with only lower bounds:        0
                variables with lower and upper bounds:       72
                     variables with only upper bounds:        0
Total number of equality constraints.................:       32
Total number of inequality constraints...............:        0
        inequality constraints with only lower bounds:        0
   inequality constraints with lower and upper bounds:        0
        inequality constraints with only upper bounds:        0

iter    objective    inf_pr   inf_du lg(mu)  ||d||  lg(rg) alpha_du alpha_pr  ls
   0  1.5594150e+09 6.11e-01 5.01e+01  -1.0 0.00e+00    -  0.00e+00 0.00e+00   0
   1  1.5347546e+09 5.98e-01 4.91e+01  -1.0 2.42e+01    -  1.74e-02 2.07e-02f  1
   2  1.4154605e+09 5.67e-01 6.22e+01  -1.0 4.78e+01    -  6.56e-04 5.31e-02f  1
   3  1.3444074e+09 5.50e-01 4.59e+01  -1.0 5.68e+01    -  7.74e-02 2.88e-02f  1
   4  1.1780186e+09 5.12e-01 7.71e+01  -1.0 5.17e+01    -  4.64e-03 6.90e-02f  1
   5  4.3582732e+08 2.95e-01 4.70e+02  -1.0 5.65e+01    -  5.76e-02 4.23e-01f  1
   6  3.2968951e+08 2.56e-01 2.43e+02  -1.0 3.50e+01    -  2.19e-01 1.35e-01f  1
   7  1.1727308e+08 1.50e-01 6.81e+01  -1.0 2.45e+01    -  5.10e-01 4.13e-01f  1
   8  3.0560751e+07 7.61e-02 4.26e+02  -1.0 2.28e+01    -  6.16e-01 4.93e-01f  1
   9  2.1976847e+06 2.04e-02 3.36e+02  -1.0 1.24e+01    -  6.38e-01 7.32e-01f  1
iter    objective    inf_pr   inf_du lg(mu)  ||d||  lg(rg) alpha_du alpha_pr  ls
  10  5.2213188e+03 1.06e-03 2.18e+03  -1.0 1.34e+01    -  5.48e-01 9.48e-01f  1
  11  5.1872342e+02 1.26e-05 7.79e+02  -1.0 1.26e+01    -  8.26e-01 1.00e+00f  1
  12  1.6780022e+03 9.09e-13 2.64e+03  -1.0 1.23e+02    -  4.49e-01 1.00e+00f  1
  13  5.6479860e+03 6.68e-13 7.91e+02  -1.0 1.03e+02    -  7.99e-01 1.00e+00f  1
  14  9.0131622e+03 4.55e-13 1.97e-01  -1.0 1.56e+02    -  1.00e+00 1.00e+00f  1
  15  2.3973800e+02 1.44e-05 5.68e-06  -3.8 2.08e-01    -  1.00e+00 1.00e+00f  1
  16  1.2574293e+04 1.20e-12 2.69e+03  -3.8 8.52e+01    -  6.93e-01 1.00e+00h  1
  17  2.3973802e+02 4.90e-13 6.28e-06  -3.8 6.25e-02  -4.0 1.00e+00 1.00e+00f  1
  18  2.3973800e+02 8.42e-11 3.89e-06  -5.7 1.79e-01    -  1.00e+00 1.00e+00H  1
  19  2.3973800e+02 1.21e-11 1.66e-07  -8.6 3.10e-02    -  1.00e+00 1.00e+00h  1
iter    objective    inf_pr   inf_du lg(mu)  ||d||  lg(rg) alpha_du alpha_pr  ls
  20  2.3973800e+02 5.68e-13 1.46e-11  -8.6 4.37e-07  -4.5 1.00e+00 1.00e+00h  1
  21  2.3973800e+02 9.09e-13 1.76e-06 -10.7 1.16e-01    -  1.00e+00 1.00e+00h  1
  22  2.3973800e+02 9.09e-13 4.12e-12 -10.7 3.69e-07  -5.0 1.00e+00 1.00e+00h  1

Number of Iterations....: 22

                                   (scaled)                 (unscaled)
Objective...............:   5.1930676289869678e-04    2.3973800065831165e+02
Dual infeasibility......:   4.1242116408734408e-12    1.9039425705834858e-06
Constraint violation....:   9.0949470177292824e-13    9.0949470177292824e-13
Complementarity.........:   1.9692208173863875e-11    9.0909091762980301e-06
Overall NLP error.......:   1.9692208173863875e-11    9.0909091762980301e-06


Number of objective function evaluations             = 24
Number of objective gradient evaluations             = 23
Number of equality constraint evaluations            = 24
Number of inequality constraint evaluations          = 0
Number of equality constraint Jacobian evaluations   = 23
Number of inequality constraint Jacobian evaluations = 0
Number of Lagrangian Hessian evaluations             = 22
Total CPU secs in IPOPT (w/o function evaluations)   =      0.014
Total CPU secs in NLP function evaluations           =      0.002

EXIT: Optimal Solution Found.
 
Ipopt 3.12.8: Optimal Solution Found
